
Gurobi 6.5.2 (win64) logging started 07/24/16 17:41:14


Gurobi 6.5.2 (win64) logging started 07/24/16 17:41:14

Optimize a model with 4529 rows, 822 columns and 11048 nonzeros
Coefficient statistics:
  Matrix range    [6e-08, 1e+03]
  Objective range [1e+00, 1e+00]
  Bounds range    [1e+00, 1e+00]
  RHS range       [6e-06, 3e+03]
Presolve removed 4274 rows and 563 columns
Presolve time: 0.00s
Presolved: 255 rows, 259 columns, 1078 nonzeros
Variable types: 259 continuous, 0 integer (0 binary)

Root relaxation: objective 2.172511e+01, 271 iterations, 0.00 seconds

    Nodes    |    Current Node    |     Objective Bounds      |     Work
 Expl Unexpl |  Obj  Depth IntInf | Incumbent    BestBd   Gap | It/Node Time

*    0     0               0      21.7251121   21.72511  0.00%     -    0s

Explored 0 nodes (271 simplex iterations) in 0.00 seconds
Thread count was 8 (of 8 available processors)

Optimal solution found (tolerance 1.00e-04)
Best objective 2.172511211299e+01, best bound 2.172511211299e+01, gap 0.0%

Wrote requested result file 'H1\instance23\\Results23EC_Sol4.lp'

